HUN,8,6,72
0,19,4,24,1,9,5,75,3,5,2,17
1,41,4,91,5,84,0,3,3,12,2,52
2,28,3,64,5,44,0,23,1,23,4,98
4,97,3,55,0,24,5,51,1,44,2,63
1,9,3,92,5,31,2,64,0,72,4,100
5,9,4,84,3,46,0,88,2,10,1,98
4,49,3,74,5,76,1,5,0,100,2,39
1,33,0,44,3,15,5,56,2,79,4,12
